(set-option :produce-models true); benchmark generated from python API
(set-info :status unknown)
(declare-fun l_1_0_9 () Real)
(declare-fun l_1_0_8 () Real)
(declare-fun l_1_0_7 () Real)
(declare-fun l_1_0_6 () Real)
(declare-fun l_1_0_5 () Real)
(declare-fun l_1_0_4 () Real)
(declare-fun l_1_0_3 () Real)
(declare-fun l_1_0_2 () Real)
(declare-fun l_1_0_1 () Real)
(declare-fun _a_0_ () Real)
(declare-fun l_1_0_11 () Real)
(declare-fun l_1_0_10 () Real)
(declare-fun _a_1_ () Real)
(declare-fun l_1_0_14 () Real)
(declare-fun l_1_0_13 () Real)
(declare-fun l_1_0_12 () Real)
(declare-fun _a_2_ () Real)
(declare-fun l_1_1_8 () Real)
(declare-fun l_1_1_6 () Real)
(declare-fun l_1_1_4 () Real)
(declare-fun l_1_1_15 () Real)
(declare-fun l_1_1_14 () Real)
(declare-fun l_1_1_13 () Real)
(declare-fun l_1_1_12 () Real)
(declare-fun l_1_1_11 () Real)
(declare-fun l_1_1_10 () Real)
(declare-fun l_1_1_1 () Real)
(declare-fun l_1_1_9 () Real)
(declare-fun l_1_1_7 () Real)
(declare-fun l_1_1_5 () Real)
(declare-fun l_1_1_3 () Real)
(declare-fun l_1_1_2 () Real)
(declare-fun l_1_1_18 () Real)
(declare-fun l_1_1_17 () Real)
(declare-fun l_1_1_16 () Real)
(declare-fun l_1_1_20 () Real)
(declare-fun l_1_1_19 () Real)
(declare-fun l_1_2_7 () Real)
(declare-fun l_1_2_6 () Real)
(declare-fun l_1_2_5 () Real)
(declare-fun l_1_2_3 () Real)
(declare-fun l_1_2_2 () Real)
(declare-fun l_1_2_15 () Real)
(declare-fun l_1_2_14 () Real)
(declare-fun l_1_2_13 () Real)
(declare-fun l_1_2_12 () Real)
(declare-fun l_1_2_11 () Real)
(declare-fun l_1_2_9 () Real)
(declare-fun l_1_2_8 () Real)
(declare-fun l_1_2_4 () Real)
(declare-fun l_1_2_10 () Real)
(declare-fun l_1_2_1 () Real)
(declare-fun l_1_2_17 () Real)
(declare-fun l_1_2_16 () Real)
(declare-fun l_1_2_20 () Real)
(declare-fun l_1_2_19 () Real)
(declare-fun l_1_2_18 () Real)
(assert
 (let ((?x43 (* l_1_0_9 l_1_0_9)))
 (let ((?x1057 (- (- (- _a_0_ (* 1.0 l_1_0_1)) (* 1.0 l_1_0_2)) (* 1.0 l_1_0_3))))
 (let ((?x44 (- (- (- (- ?x1057 l_1_0_4) l_1_0_5) (* 1.0 l_1_0_6)) l_1_0_7)))
 (= (- (- ?x44 l_1_0_8) ?x43) 0.0)))))
(assert
 (let ((?x767 (* 2.0 l_1_0_3)))
 (let ((?x992 (* l_1_0_11 l_1_0_11)))
 (let ((?x615 (+ (- (- (+ _a_1_ l_1_0_1) (* l_1_0_10 l_1_0_10)) ?x992) l_1_0_2)))
 (= (+ (+ ?x615 ?x767) l_1_0_6) 0.0)))))
(assert
 (let ((?x767 (* 2.0 l_1_0_3)))
 (let ((?x929 (* l_1_0_14 l_1_0_14)))
 (let ((?x928 (* l_1_0_13 l_1_0_13)))
 (let ((?x930 (+ (- (- (- (+ _a_2_ l_1_0_1) (* l_1_0_12 l_1_0_12)) ?x928) ?x929) l_1_0_2)))
 (= (+ (+ ?x930 ?x767) l_1_0_6) 0.0))))))
(assert
 (= (- l_1_0_3) 0.0))
(assert
 (= (* (- 2.0) l_1_0_3) 0.0))
(assert
 (= (- l_1_0_3) 0.0))
(assert
 (= (* (* (- 2.0) l_1_0_10) l_1_0_9) 0.0))
(assert
 (= (* (* (- 2.0) l_1_0_12) l_1_0_9) 0.0))
(assert
 (let ((?x839 (- (* (* (- 2.0) l_1_0_10) l_1_0_12) (* (* 2.0 l_1_0_11) l_1_0_13))))
 (= ?x839 0.0)))
(assert
 (>= l_1_0_1 0.0))
(assert
 (>= l_1_0_2 0.0))
(assert
 (>= l_1_0_3 0.0))
(assert
 (>= l_1_0_4 0.0))
(assert
 (>= l_1_0_5 0.0))
(assert
 (>= l_1_0_6 0.0))
(assert
 (>= l_1_0_7 0.0))
(assert
 (>= l_1_0_8 0.0))
(assert
 (>= l_1_0_9 0.0))
(assert
 (>= l_1_0_11 0.0))
(assert
 (>= l_1_0_14 0.0))
(assert
 (let ((?x705 (* 3.0 l_1_1_6)))
 (let ((?x733 (* 9.0 l_1_1_4)))
 (let ((?x730 (* l_1_1_15 l_1_1_15)))
 (let ((?x724 (* 3.0 l_1_1_12)))
 (let ((?x720 (* 3.0 l_1_1_1)))
 (let ((?x718 (* _a_0_ l_1_1_9)))
 (let ((?x794 (* _a_0_ l_1_1_7)))
 (let ((?x680 (+ (+ (* (- _a_0_) l_1_1_2) (* (* 3.0 _a_0_) l_1_1_3)) (* (* 3.0 _a_0_) l_1_1_5))))
 (let ((?x725 (+ (- (- (+ (- (- ?x680 ?x794) ?x718) ?x720) l_1_1_10) l_1_1_11) ?x724)))
 (let ((?x734 (- (- (- (- ?x725 (* (* l_1_1_13 _a_0_) _a_0_)) l_1_1_14) ?x730) ?x733)))
 (= (+ (- (+ ?x734 ?x705) l_1_1_8) 1.0) 0.0))))))))))))
(assert
 (= (+ (* (* (- 2.0) l_1_1_15) l_1_1_18) 1.0) 0.0))
(assert
 (let ((?x595 (* 6.0 l_1_1_4)))
 (let ((?x490 (* l_1_1_17 l_1_1_17)))
 (let ((?x593 (* l_1_1_16 l_1_1_16)))
 (let ((?x526 (* _a_1_ l_1_1_9)))
 (let ((?x524 (* _a_1_ l_1_1_7)))
 (let ((?x489 (* _a_1_ l_1_1_2)))
 (let ((?x527 (- (- (- (* (* (* (- 2.0) _a_0_) _a_1_) l_1_1_13) ?x489) ?x524) ?x526)))
 (let ((?x475 (- (- (- (- (- ?x527 l_1_1_1) l_1_1_12) ?x593) ?x490) (* l_1_1_3 (- _a_0_ (* 3.0 _a_1_))))))
 (let ((?x302 (- (- (+ ?x475 ?x595) (* l_1_1_5 (- _a_0_ (* 3.0 _a_1_)))) l_1_1_6)))
 (= (- ?x302 (/ 1.0 5.0)) 0.0)))))))))))
(assert
 (let ((?x595 (* 6.0 l_1_1_4)))
 (let ((?x283 (* l_1_1_20 l_1_1_20)))
 (let ((?x279 (* l_1_1_19 l_1_1_19)))
 (let ((?x320 (* l_1_1_18 l_1_1_18)))
 (let ((?x315 (* _a_2_ l_1_1_9)))
 (let ((?x312 (* _a_2_ l_1_1_7)))
 (let ((?x310 (* _a_2_ l_1_1_2)))
 (let ((?x317 (- (- (- (* (* (* (- 2.0) _a_0_) _a_2_) l_1_1_13) ?x310) ?x312) ?x315)))
 (let ((?x257 (- (- (- (- (- (- ?x317 l_1_1_1) l_1_1_12) ?x320) ?x279) ?x283) (* l_1_1_3 (- _a_0_ (* 3.0 _a_2_))))))
 (let ((?x263 (- (- (+ ?x257 ?x595) (* l_1_1_5 (- _a_0_ (* 3.0 _a_2_)))) l_1_1_6)))
 (= ?x263 0.0))))))))))))
(assert
 (let ((?x82 (- (- (* (- _a_1_) l_1_1_3) (* _a_1_ l_1_1_5)) (* (* l_1_1_13 _a_1_) _a_1_))))
 (= (- ?x82 l_1_1_4) 0.0)))
(assert
 (let ((?x95 (* 2.0 l_1_1_4)))
 (let ((?x94 (- (* (* (* (- 2.0) _a_1_) _a_2_) l_1_1_13) (* l_1_1_3 (+ _a_1_ _a_2_)))))
 (= (- (- ?x94 ?x95) (* l_1_1_5 (+ _a_1_ _a_2_))) 0.0))))
(assert
 (let ((?x562 (- (- (* (- _a_2_) l_1_1_3) (* _a_2_ l_1_1_5)) (* (* l_1_1_13 _a_2_) _a_2_))))
 (= (- ?x562 l_1_1_4) 0.0)))
(assert
 (= (* (* (- 2.0) l_1_1_15) l_1_1_16) 0.0))
(assert
 (let ((?x458 (- (* (* (- 2.0) l_1_1_16) l_1_1_18) (* (* 2.0 l_1_1_17) l_1_1_19))))
 (= ?x458 0.0)))
(assert
 (>= l_1_1_1 0.0))
(assert
 (>= l_1_1_2 0.0))
(assert
 (>= l_1_1_3 0.0))
(assert
 (>= l_1_1_4 0.0))
(assert
 (>= l_1_1_5 0.0))
(assert
 (>= l_1_1_6 0.0))
(assert
 (>= l_1_1_7 0.0))
(assert
 (>= l_1_1_8 0.0))
(assert
 (>= l_1_1_9 0.0))
(assert
 (>= l_1_1_10 0.0))
(assert
 (>= l_1_1_11 0.0))
(assert
 (>= l_1_1_12 0.0))
(assert
 (>= l_1_1_13 0.0))
(assert
 (>= l_1_1_14 0.0))
(assert
 (>= l_1_1_15 0.0))
(assert
 (>= l_1_1_17 0.0))
(assert
 (>= l_1_1_20 0.0))
(assert
 (let ((?x514 (* 3.0 l_1_2_6)))
 (let ((?x513 (* 3.0 l_1_2_5)))
 (let ((?x511 (* 9.0 l_1_2_3)))
 (let ((?x646 (* 3.0 l_1_2_2)))
 (let ((?x647 (* l_1_2_15 l_1_2_15)))
 (let ((?x959 (* _a_0_ l_1_2_9)))
 (let ((?x916 (- (- (* (- _a_0_) l_1_2_1) (* _a_0_ l_1_2_10)) (* (* 3.0 _a_0_) l_1_2_4))))
 (let ((?x960 (+ (+ (- (- ?x916 (* (* 3.0 _a_0_) l_1_2_8)) ?x959) _a_0_) (* 1.0 _a_1_))))
 (let ((?x640 (- (- (+ ?x960 (* 1.0 _a_2_)) l_1_2_11) (* (* l_1_2_12 _a_0_) _a_0_))))
 (let ((?x517 (- (- (- (- (- (- ?x640 l_1_2_13) l_1_2_14) ?x647) ?x646) ?x511) ?x513)))
 (= (- (- ?x517 ?x514) l_1_2_7) 0.0))))))))))))
(assert
 (let ((?x108 (- (+ (+ (* _a_1_ l_1_2_4) (* _a_1_ l_1_2_8)) _a_1_) (* (* l_1_2_12 _a_1_) _a_1_))))
 (= (- ?x108 l_1_2_3) 0.0)))
(assert
 (let ((?x543 (* 2.0 _a_1_)))
 (= ?x543 0.0)))
(assert
 (let ((?x712 (* 6.0 l_1_2_3)))
 (let ((?x482 (* l_1_2_17 l_1_2_17)))
 (let ((?x478 (* l_1_2_16 l_1_2_16)))
 (let ((?x543 (* 2.0 _a_1_)))
 (let ((?x479 (* _a_1_ l_1_2_9)))
 (let ((?x366 (* _a_1_ l_1_2_10)))
 (let ((?x823 (* _a_1_ l_1_2_1)))
 (let ((?x480 (- (- (- (* (* (* (- 2.0) _a_0_) _a_1_) l_1_2_12) ?x823) ?x366) ?x479)))
 (let ((?x144 (- (+ (+ (- (- (- ?x480 ?x543) ?x478) ?x482) l_1_2_2) ?x712) (* l_1_2_4 (+ (- _a_0_) (* 3.0 _a_1_))))))
 (let ((?x150 (- (+ (+ ?x144 l_1_2_5) l_1_2_6) (* l_1_2_8 (+ (- _a_0_) (* 3.0 _a_1_))))))
 (= ?x150 0.0))))))))))))
(assert
 (let ((?x712 (* 6.0 l_1_2_3)))
 (let ((?x415 (* l_1_2_20 l_1_2_20)))
 (let ((?x361 (* l_1_2_19 l_1_2_19)))
 (let ((?x364 (* l_1_2_18 l_1_2_18)))
 (let ((?x358 (* 2.0 _a_2_)))
 (let ((?x892 (* _a_2_ l_1_2_9)))
 (let ((?x885 (* _a_2_ l_1_2_10)))
 (let ((?x895 (* _a_2_ l_1_2_1)))
 (let ((?x891 (- (- (+ (* (* (* (- 2.0) _a_0_) _a_2_) l_1_2_12) _a_1_) ?x895) ?x885)))
 (let ((?x412 (+ (- (+ (- (- (+ (- ?x891 ?x892) ?x358) ?x364) ?x361) l_1_2_2) ?x415) ?x712)))
 (let ((?x464 (+ (- ?x412 (* l_1_2_4 (+ (- _a_0_) (* 3.0 _a_2_)))) l_1_2_5)))
 (let ((?x699 (- (+ ?x464 l_1_2_6) (* l_1_2_8 (+ (- _a_0_) (* 3.0 _a_2_))))))
 (= ?x699 0.0))))))))))))))
(assert
 (= (- (* (- 2.0) _a_1_) (* (* 2.0 l_1_2_15) l_1_2_18)) 0.0))
(assert
 (let ((?x1031 (* 2.0 l_1_2_3)))
 (let ((?x1032 (- (+ (* (* (* (- 2.0) _a_1_) _a_2_) l_1_2_12) (* 4.0 _a_2_)) ?x1031)))
 (let ((?x1009 (- (- ?x1032 (* l_1_2_4 (- (- _a_1_) _a_2_))) (* l_1_2_8 (- (- _a_1_) _a_2_)))))
 (= ?x1009 0.0)))))
(assert
 (let ((?x1029 (* 4.0 _a_2_)))
 (= ?x1029 0.0)))
(assert
 (let ((?x1050 (- (- (* 4.0 _a_2_) (* (* 2.0 l_1_2_16) l_1_2_18)) (* (* 2.0 l_1_2_17) l_1_2_19))))
 (= ?x1050 0.0)))
(assert
 (let ((?x898 (- (+ (+ (* _a_2_ l_1_2_4) (* _a_2_ l_1_2_8)) _a_2_) (* (* l_1_2_12 _a_2_) _a_2_))))
 (= (- ?x898 l_1_2_3) 0.0)))
(assert
 (= (* (* (- 2.0) l_1_2_15) l_1_2_16) 0.0))
(assert
 (>= l_1_2_1 0.0))
(assert
 (>= l_1_2_2 0.0))
(assert
 (>= l_1_2_3 0.0))
(assert
 (>= l_1_2_4 0.0))
(assert
 (>= l_1_2_5 0.0))
(assert
 (>= l_1_2_6 0.0))
(assert
 (>= l_1_2_7 0.0))
(assert
 (>= l_1_2_8 0.0))
(assert
 (>= l_1_2_9 0.0))
(assert
 (>= l_1_2_10 0.0))
(assert
 (>= l_1_2_11 0.0))
(assert
 (>= l_1_2_12 0.0))
(assert
 (>= l_1_2_13 0.0))
(assert
 (>= l_1_2_14 0.0))
(assert
 (>= l_1_2_15 0.0))
(assert
 (>= l_1_2_17 0.0))
(assert
 (>= l_1_2_20 0.0))
(check-sat)
(get-model)